\ Model TSP Problem
\ LP format - for model browsing. Use MPS format to capture full model detail.
Minimize
  16.1245154965971 X[0,1,0] + 16.1245154965971 X[0,1,1]
   + 16.1245154965971 X[0,1,2] + 16.1245154965971 X[0,1,3]
   + 15.13274595042156 X[0,2,0] + 15.13274595042156 X[0,2,1]
   + 15.13274595042156 X[0,2,2] + 15.13274595042156 X[0,2,3] + 19 X[0,3,0]
   + 19 X[0,3,1] + 19 X[0,3,2] + 19 X[0,3,3] + 18.11077027627483 X[0,4,0]
   + 18.11077027627483 X[0,4,1] + 18.11077027627483 X[0,4,2]
   + 18.11077027627483 X[0,4,3] + 20.09975124224178 X[0,5,0]
   + 20.09975124224178 X[0,5,1] + 20.09975124224178 X[0,5,2]
   + 20.09975124224178 X[0,5,3] + 1.414213562373095 X[0,6,0]
   + 1.414213562373095 X[0,6,1] + 1.414213562373095 X[0,6,2]
   + 1.414213562373095 X[0,6,3] + 16.1245154965971 X[1,0,0]
   + 16.1245154965971 X[1,0,1] + 16.1245154965971 X[1,0,2]
   + 16.1245154965971 X[1,0,3] + X[1,2,0] + X[1,2,1] + X[1,2,2] + X[1,2,3]
   + 3.605551275463989 X[1,3,0] + 3.605551275463989 X[1,3,1]
   + 3.605551275463989 X[1,3,2] + 3.605551275463989 X[1,3,3]
   + 4.47213595499958 X[1,4,0] + 4.47213595499958 X[1,4,1]
   + 4.47213595499958 X[1,4,2] + 4.47213595499958 X[1,4,3]
   + 5.656854249492381 X[1,5,0] + 5.656854249492381 X[1,5,1]
   + 5.656854249492381 X[1,5,2] + 5.656854249492381 X[1,5,3]
   + 15.03329637837291 X[1,6,0] + 15.03329637837291 X[1,6,1]
   + 15.03329637837291 X[1,6,2] + 15.03329637837291 X[1,6,3]
   + 15.13274595042156 X[2,0,0] + 15.13274595042156 X[2,0,1]
   + 15.13274595042156 X[2,0,2] + 15.13274595042156 X[2,0,3] + X[2,1,0]
   + X[2,1,1] + X[2,1,2] + X[2,1,3] + 4.47213595499958 X[2,3,0]
   + 4.47213595499958 X[2,3,1] + 4.47213595499958 X[2,3,2]
   + 4.47213595499958 X[2,3,3] + 5 X[2,4,0] + 5 X[2,4,1] + 5 X[2,4,2]
   + 5 X[2,4,3] + 6.403124237432849 X[2,5,0] + 6.403124237432849 X[2,5,1]
   + 6.403124237432849 X[2,5,2] + 6.403124237432849 X[2,5,3]
   + 14.0356688476182 X[2,6,0] + 14.0356688476182 X[2,6,1]
   + 14.0356688476182 X[2,6,2] + 14.0356688476182 X[2,6,3] + 19 X[3,0,0]
   + 19 X[3,0,1] + 19 X[3,0,2] + 19 X[3,0,3] + 3.605551275463989 X[3,1,0]
   + 3.605551275463989 X[3,1,1] + 3.605551275463989 X[3,1,2]
   + 3.605551275463989 X[3,1,3] + 4.47213595499958 X[3,2,0]
   + 4.47213595499958 X[3,2,1] + 4.47213595499958 X[3,2,2]
   + 4.47213595499958 X[3,2,3] + 2.23606797749979 X[3,4,0]
   + 2.23606797749979 X[3,4,1] + 2.23606797749979 X[3,4,2]
   + 2.23606797749979 X[3,4,3] + 2.23606797749979 X[3,5,0]
   + 2.23606797749979 X[3,5,1] + 2.23606797749979 X[3,5,2]
   + 2.23606797749979 X[3,5,3] + 18.02775637731995 X[3,6,0]
   + 18.02775637731995 X[3,6,1] + 18.02775637731995 X[3,6,2]
   + 18.02775637731995 X[3,6,3] + 18.11077027627483 X[4,0,0]
   + 18.11077027627483 X[4,0,1] + 18.11077027627483 X[4,0,2]
   + 18.11077027627483 X[4,0,3] + 4.47213595499958 X[4,1,0]
   + 4.47213595499958 X[4,1,1] + 4.47213595499958 X[4,1,2]
   + 4.47213595499958 X[4,1,3] + 5 X[4,2,0] + 5 X[4,2,1] + 5 X[4,2,2]
   + 5 X[4,2,3] + 2.23606797749979 X[4,3,0] + 2.23606797749979 X[4,3,1]
   + 2.23606797749979 X[4,3,2] + 2.23606797749979 X[4,3,3] + 2 X[4,5,0]
   + 2 X[4,5,1] + 2 X[4,5,2] + 2 X[4,5,3] + 17.26267650163207 X[4,6,0]
   + 17.26267650163207 X[4,6,1] + 17.26267650163207 X[4,6,2]
   + 17.26267650163207 X[4,6,3] + 20.09975124224178 X[5,0,0]
   + 20.09975124224178 X[5,0,1] + 20.09975124224178 X[5,0,2]
   + 20.09975124224178 X[5,0,3] + 5.656854249492381 X[5,1,0]
   + 5.656854249492381 X[5,1,1] + 5.656854249492381 X[5,1,2]
   + 5.656854249492381 X[5,1,3] + 6.403124237432849 X[5,2,0]
   + 6.403124237432849 X[5,2,1] + 6.403124237432849 X[5,2,2]
   + 6.403124237432849 X[5,2,3] + 2.23606797749979 X[5,3,0]
   + 2.23606797749979 X[5,3,1] + 2.23606797749979 X[5,3,2]
   + 2.23606797749979 X[5,3,3] + 2 X[5,4,0] + 2 X[5,4,1] + 2 X[5,4,2]
   + 2 X[5,4,3] + 19.23538406167134 X[5,6,0] + 19.23538406167134 X[5,6,1]
   + 19.23538406167134 X[5,6,2] + 19.23538406167134 X[5,6,3]
   + 1.414213562373095 X[6,0,0] + 1.414213562373095 X[6,0,1]
   + 1.414213562373095 X[6,0,2] + 1.414213562373095 X[6,0,3]
   + 15.03329637837291 X[6,1,0] + 15.03329637837291 X[6,1,1]
   + 15.03329637837291 X[6,1,2] + 15.03329637837291 X[6,1,3]
   + 14.0356688476182 X[6,2,0] + 14.0356688476182 X[6,2,1]
   + 14.0356688476182 X[6,2,2] + 14.0356688476182 X[6,2,3]
   + 18.02775637731995 X[6,3,0] + 18.02775637731995 X[6,3,1]
   + 18.02775637731995 X[6,3,2] + 18.02775637731995 X[6,3,3]
   + 17.26267650163207 X[6,4,0] + 17.26267650163207 X[6,4,1]
   + 17.26267650163207 X[6,4,2] + 17.26267650163207 X[6,4,3]
   + 19.23538406167134 X[6,5,0] + 19.23538406167134 X[6,5,1]
   + 19.23538406167134 X[6,5,2] + 19.23538406167134 X[6,5,3]
Subject To
 R0: T[0] >= 0
 R1: T[0] <= 1236
 R2: - 100000.0001 X[0,1,0] - T[0] + T[1] >= -99983.8755845034
 R3: - 100000.0001 X[0,1,1] - T[0] + T[1] >= -99983.8755845034
 R4: - 100000.0001 X[0,1,2] - T[0] + T[1] >= -99983.8755845034
 R5: - 100000.0001 X[0,1,3] - T[0] + T[1] >= -99983.8755845034
 R6: - 100000.0001 X[0,2,0] - T[0] + T[2] >= -99984.86735404958
 R7: - 100000.0001 X[0,2,1] - T[0] + T[2] >= -99984.86735404958
 R8: - 100000.0001 X[0,2,2] - T[0] + T[2] >= -99984.86735404958
 R9: - 100000.0001 X[0,2,3] - T[0] + T[2] >= -99984.86735404958
 R10: - 100000.0001 X[0,3,0] - T[0] + T[3] >= -99981.0001
 R11: - 100000.0001 X[0,3,1] - T[0] + T[3] >= -99981.0001
 R12: - 100000.0001 X[0,3,2] - T[0] + T[3] >= -99981.0001
 R13: - 100000.0001 X[0,3,3] - T[0] + T[3] >= -99981.0001
 R14: - 100000.0001 X[0,4,0] - T[0] + T[4] >= -99981.88932972372
 R15: - 100000.0001 X[0,4,1] - T[0] + T[4] >= -99981.88932972372
 R16: - 100000.0001 X[0,4,2] - T[0] + T[4] >= -99981.88932972372
 R17: - 100000.0001 X[0,4,3] - T[0] + T[4] >= -99981.88932972372
 R18: - 100000.0001 X[0,5,0] - T[0] + T[5] >= -99979.90034875776
 R19: - 100000.0001 X[0,5,1] - T[0] + T[5] >= -99979.90034875776
 R20: - 100000.0001 X[0,5,2] - T[0] + T[5] >= -99979.90034875776
 R21: - 100000.0001 X[0,5,3] - T[0] + T[5] >= -99979.90034875776
 R22: - 100000.0001 X[0,6,0] - T[0] + T[6] >= -99998.58588643764
 R23: - 100000.0001 X[0,6,1] - T[0] + T[6] >= -99998.58588643764
 R24: - 100000.0001 X[0,6,2] - T[0] + T[6] >= -99998.58588643764
 R25: - 100000.0001 X[0,6,3] - T[0] + T[6] >= -99998.58588643764
 R26: T[1] >= 65
 R27: T[1] <= 146
 R28: - 100000.0001 X[1,1,0] >= -99910.0001
 R29: - 100000.0001 X[1,1,1] >= -99910.0001
 R30: - 100000.0001 X[1,1,2] >= -99910.0001
 R31: - 100000.0001 X[1,1,3] >= -99910.0001
 R32: - 100000.0001 X[1,2,0] - T[1] + T[2] >= -99909.0001
 R33: - 100000.0001 X[1,2,1] - T[1] + T[2] >= -99909.0001
 R34: - 100000.0001 X[1,2,2] - T[1] + T[2] >= -99909.0001
 R35: - 100000.0001 X[1,2,3] - T[1] + T[2] >= -99909.0001
 R36: - 100000.0001 X[1,3,0] - T[1] + T[3] >= -99906.39454872454
 R37: - 100000.0001 X[1,3,1] - T[1] + T[3] >= -99906.39454872454
 R38: - 100000.0001 X[1,3,2] - T[1] + T[3] >= -99906.39454872454
 R39: - 100000.0001 X[1,3,3] - T[1] + T[3] >= -99906.39454872454
 R40: - 100000.0001 X[1,4,0] - T[1] + T[4] >= -99905.527964045
 R41: - 100000.0001 X[1,4,1] - T[1] + T[4] >= -99905.527964045
 R42: - 100000.0001 X[1,4,2] - T[1] + T[4] >= -99905.527964045
 R43: - 100000.0001 X[1,4,3] - T[1] + T[4] >= -99905.527964045
 R44: - 100000.0001 X[1,5,0] - T[1] + T[5] >= -99904.34324575051
 R45: - 100000.0001 X[1,5,1] - T[1] + T[5] >= -99904.34324575051
 R46: - 100000.0001 X[1,5,2] - T[1] + T[5] >= -99904.34324575051
 R47: - 100000.0001 X[1,5,3] - T[1] + T[5] >= -99904.34324575051
 R48: - 100000.0001 X[1,6,0] - T[1] + T[6] >= -99894.96680362163
 R49: - 100000.0001 X[1,6,1] - T[1] + T[6] >= -99894.96680362163
 R50: - 100000.0001 X[1,6,2] - T[1] + T[6] >= -99894.96680362163
 R51: - 100000.0001 X[1,6,3] - T[1] + T[6] >= -99894.96680362163
 R52: T[2] >= 15
 R53: T[2] <= 67
 R54: - 100000.0001 X[2,1,0] + T[1] - T[2] >= -99909.0001
 R55: - 100000.0001 X[2,1,1] + T[1] - T[2] >= -99909.0001
 R56: - 100000.0001 X[2,1,2] + T[1] - T[2] >= -99909.0001
 R57: - 100000.0001 X[2,1,3] + T[1] - T[2] >= -99909.0001
 R58: - 100000.0001 X[2,2,0] >= -99910.0001
 R59: - 100000.0001 X[2,2,1] >= -99910.0001
 R60: - 100000.0001 X[2,2,2] >= -99910.0001
 R61: - 100000.0001 X[2,2,3] >= -99910.0001
 R62: - 100000.0001 X[2,3,0] - T[2] + T[3] >= -99905.527964045
 R63: - 100000.0001 X[2,3,1] - T[2] + T[3] >= -99905.527964045
 R64: - 100000.0001 X[2,3,2] - T[2] + T[3] >= -99905.527964045
 R65: - 100000.0001 X[2,3,3] - T[2] + T[3] >= -99905.527964045
 R66: - 100000.0001 X[2,4,0] - T[2] + T[4] >= -99905.0001
 R67: - 100000.0001 X[2,4,1] - T[2] + T[4] >= -99905.0001
 R68: - 100000.0001 X[2,4,2] - T[2] + T[4] >= -99905.0001
 R69: - 100000.0001 X[2,4,3] - T[2] + T[4] >= -99905.0001
 R70: - 100000.0001 X[2,5,0] - T[2] + T[5] >= -99903.59697576257
 R71: - 100000.0001 X[2,5,1] - T[2] + T[5] >= -99903.59697576257
 R72: - 100000.0001 X[2,5,2] - T[2] + T[5] >= -99903.59697576257
 R73: - 100000.0001 X[2,5,3] - T[2] + T[5] >= -99903.59697576257
 R74: - 100000.0001 X[2,6,0] - T[2] + T[6] >= -99895.96443115239
 R75: - 100000.0001 X[2,6,1] - T[2] + T[6] >= -99895.96443115239
 R76: - 100000.0001 X[2,6,2] - T[2] + T[6] >= -99895.96443115239
 R77: - 100000.0001 X[2,6,3] - T[2] + T[6] >= -99895.96443115239
 R78: T[3] >= 621
 R79: T[3] <= 702
 R80: - 100000.0001 X[3,1,0] + T[1] - T[3] >= -99906.39454872454
 R81: - 100000.0001 X[3,1,1] + T[1] - T[3] >= -99906.39454872454
 R82: - 100000.0001 X[3,1,2] + T[1] - T[3] >= -99906.39454872454
 R83: - 100000.0001 X[3,1,3] + T[1] - T[3] >= -99906.39454872454
 R84: - 100000.0001 X[3,2,0] + T[2] - T[3] >= -99905.527964045
 R85: - 100000.0001 X[3,2,1] + T[2] - T[3] >= -99905.527964045
 R86: - 100000.0001 X[3,2,2] + T[2] - T[3] >= -99905.527964045
 R87: - 100000.0001 X[3,2,3] + T[2] - T[3] >= -99905.527964045
 R88: - 100000.0001 X[3,3,0] >= -99910.0001
 R89: - 100000.0001 X[3,3,1] >= -99910.0001
 R90: - 100000.0001 X[3,3,2] >= -99910.0001
 R91: - 100000.0001 X[3,3,3] >= -99910.0001
 R92: - 100000.0001 X[3,4,0] - T[3] + T[4] >= -99907.7640320225
 R93: - 100000.0001 X[3,4,1] - T[3] + T[4] >= -99907.7640320225
 R94: - 100000.0001 X[3,4,2] - T[3] + T[4] >= -99907.7640320225
 R95: - 100000.0001 X[3,4,3] - T[3] + T[4] >= -99907.7640320225
 R96: - 100000.0001 X[3,5,0] - T[3] + T[5] >= -99907.7640320225
 R97: - 100000.0001 X[3,5,1] - T[3] + T[5] >= -99907.7640320225
 R98: - 100000.0001 X[3,5,2] - T[3] + T[5] >= -99907.7640320225
 R99: - 100000.0001 X[3,5,3] - T[3] + T[5] >= -99907.7640320225
 R100: - 100000.0001 X[3,6,0] - T[3] + T[6] >= -99891.97234362268
 R101: - 100000.0001 X[3,6,1] - T[3] + T[6] >= -99891.97234362268
 R102: - 100000.0001 X[3,6,2] - T[3] + T[6] >= -99891.97234362268
 R103: - 100000.0001 X[3,6,3] - T[3] + T[6] >= -99891.97234362268
 R104: T[4] >= 255
 R105: T[4] <= 324
 R106: - 100000.0001 X[4,1,0] + T[1] - T[4] >= -99905.527964045
 R107: - 100000.0001 X[4,1,1] + T[1] - T[4] >= -99905.527964045
 R108: - 100000.0001 X[4,1,2] + T[1] - T[4] >= -99905.527964045
 R109: - 100000.0001 X[4,1,3] + T[1] - T[4] >= -99905.527964045
 R110: - 100000.0001 X[4,2,0] + T[2] - T[4] >= -99905.0001
 R111: - 100000.0001 X[4,2,1] + T[2] - T[4] >= -99905.0001
 R112: - 100000.0001 X[4,2,2] + T[2] - T[4] >= -99905.0001
 R113: - 100000.0001 X[4,2,3] + T[2] - T[4] >= -99905.0001
 R114: - 100000.0001 X[4,3,0] + T[3] - T[4] >= -99907.7640320225
 R115: - 100000.0001 X[4,3,1] + T[3] - T[4] >= -99907.7640320225
 R116: - 100000.0001 X[4,3,2] + T[3] - T[4] >= -99907.7640320225
 R117: - 100000.0001 X[4,3,3] + T[3] - T[4] >= -99907.7640320225
 R118: - 100000.0001 X[4,4,0] >= -99910.0001
 R119: - 100000.0001 X[4,4,1] >= -99910.0001
 R120: - 100000.0001 X[4,4,2] >= -99910.0001
 R121: - 100000.0001 X[4,4,3] >= -99910.0001
 R122: - 100000.0001 X[4,5,0] - T[4] + T[5] >= -99908.0001
 R123: - 100000.0001 X[4,5,1] - T[4] + T[5] >= -99908.0001
 R124: - 100000.0001 X[4,5,2] - T[4] + T[5] >= -99908.0001
 R125: - 100000.0001 X[4,5,3] - T[4] + T[5] >= -99908.0001
 R126: - 100000.0001 X[4,6,0] - T[4] + T[6] >= -99892.73742349837
 R127: - 100000.0001 X[4,6,1] - T[4] + T[6] >= -99892.73742349837
 R128: - 100000.0001 X[4,6,2] - T[4] + T[6] >= -99892.73742349837
 R129: - 100000.0001 X[4,6,3] - T[4] + T[6] >= -99892.73742349837
 R130: T[5] >= 534
 R131: T[5] <= 605
 R132: - 100000.0001 X[5,1,0] + T[1] - T[5] >= -99904.34324575051
 R133: - 100000.0001 X[5,1,1] + T[1] - T[5] >= -99904.34324575051
 R134: - 100000.0001 X[5,1,2] + T[1] - T[5] >= -99904.34324575051
 R135: - 100000.0001 X[5,1,3] + T[1] - T[5] >= -99904.34324575051
 R136: - 100000.0001 X[5,2,0] + T[2] - T[5] >= -99903.59697576257
 R137: - 100000.0001 X[5,2,1] + T[2] - T[5] >= -99903.59697576257
 R138: - 100000.0001 X[5,2,2] + T[2] - T[5] >= -99903.59697576257
 R139: - 100000.0001 X[5,2,3] + T[2] - T[5] >= -99903.59697576257
 R140: - 100000.0001 X[5,3,0] + T[3] - T[5] >= -99907.7640320225
 R141: - 100000.0001 X[5,3,1] + T[3] - T[5] >= -99907.7640320225
 R142: - 100000.0001 X[5,3,2] + T[3] - T[5] >= -99907.7640320225
 R143: - 100000.0001 X[5,3,3] + T[3] - T[5] >= -99907.7640320225
 R144: - 100000.0001 X[5,4,0] + T[4] - T[5] >= -99908.0001
 R145: - 100000.0001 X[5,4,1] + T[4] - T[5] >= -99908.0001
 R146: - 100000.0001 X[5,4,2] + T[4] - T[5] >= -99908.0001
 R147: - 100000.0001 X[5,4,3] + T[4] - T[5] >= -99908.0001
 R148: - 100000.0001 X[5,5,0] >= -99910.0001
 R149: - 100000.0001 X[5,5,1] >= -99910.0001
 R150: - 100000.0001 X[5,5,2] >= -99910.0001
 R151: - 100000.0001 X[5,5,3] >= -99910.0001
 R152: - 100000.0001 X[5,6,0] - T[5] + T[6] >= -99890.76471593833
 R153: - 100000.0001 X[5,6,1] - T[5] + T[6] >= -99890.76471593833
 R154: - 100000.0001 X[5,6,2] - T[5] + T[6] >= -99890.76471593833
 R155: - 100000.0001 X[5,6,3] - T[5] + T[6] >= -99890.76471593833
 R156: T[6] >= 448
 R157: T[6] <= 505
 R158: - 100000.0001 X[6,1,0] + T[1] - T[6] >= -99894.96680362163
 R159: - 100000.0001 X[6,1,1] + T[1] - T[6] >= -99894.96680362163
 R160: - 100000.0001 X[6,1,2] + T[1] - T[6] >= -99894.96680362163
 R161: - 100000.0001 X[6,1,3] + T[1] - T[6] >= -99894.96680362163
 R162: - 100000.0001 X[6,2,0] + T[2] - T[6] >= -99895.96443115239
 R163: - 100000.0001 X[6,2,1] + T[2] - T[6] >= -99895.96443115239
 R164: - 100000.0001 X[6,2,2] + T[2] - T[6] >= -99895.96443115239
 R165: - 100000.0001 X[6,2,3] + T[2] - T[6] >= -99895.96443115239
 R166: - 100000.0001 X[6,3,0] + T[3] - T[6] >= -99891.97234362268
 R167: - 100000.0001 X[6,3,1] + T[3] - T[6] >= -99891.97234362268
 R168: - 100000.0001 X[6,3,2] + T[3] - T[6] >= -99891.97234362268
 R169: - 100000.0001 X[6,3,3] + T[3] - T[6] >= -99891.97234362268
 R170: - 100000.0001 X[6,4,0] + T[4] - T[6] >= -99892.73742349837
 R171: - 100000.0001 X[6,4,1] + T[4] - T[6] >= -99892.73742349837
 R172: - 100000.0001 X[6,4,2] + T[4] - T[6] >= -99892.73742349837
 R173: - 100000.0001 X[6,4,3] + T[4] - T[6] >= -99892.73742349837
 R174: - 100000.0001 X[6,5,0] + T[5] - T[6] >= -99890.76471593833
 R175: - 100000.0001 X[6,5,1] + T[5] - T[6] >= -99890.76471593833
 R176: - 100000.0001 X[6,5,2] + T[5] - T[6] >= -99890.76471593833
 R177: - 100000.0001 X[6,5,3] + T[5] - T[6] >= -99890.76471593833
 R178: - 100000.0001 X[6,6,0] >= -99910.0001
 R179: - 100000.0001 X[6,6,1] >= -99910.0001
 R180: - 100000.0001 X[6,6,2] >= -99910.0001
 R181: - 100000.0001 X[6,6,3] >= -99910.0001
 R182: Z[1,0] + Z[1,1] + Z[1,2] + Z[1,3] = 1
 R183: Z[2,0] + Z[2,1] + Z[2,2] + Z[2,3] = 1
 R184: Z[3,0] + Z[3,1] + Z[3,2] + Z[3,3] = 1
 R185: Z[4,0] + Z[4,1] + Z[4,2] + Z[4,3] = 1
 R186: Z[5,0] + Z[5,1] + Z[5,2] + Z[5,3] = 1
 R187: Z[6,0] + Z[6,1] + Z[6,2] + Z[6,3] = 1
 R188: Z[0,0] + Z[0,1] + Z[0,2] + Z[0,3] = 4
 R189: 20 Z[1,0] + 20 Z[2,0] + 20 Z[3,0] + 20 Z[4,0] + 10 Z[5,0]
   + 30 Z[6,0] <= 30
 R190: 20 Z[1,1] + 20 Z[2,1] + 20 Z[3,1] + 20 Z[4,1] + 10 Z[5,1]
   + 30 Z[6,1] <= 30
 R191: 20 Z[1,2] + 20 Z[2,2] + 20 Z[3,2] + 20 Z[4,2] + 10 Z[5,2]
   + 30 Z[6,2] <= 30
 R192: 20 Z[1,3] + 20 Z[2,3] + 20 Z[3,3] + 20 Z[4,3] + 10 Z[5,3]
   + 30 Z[6,3] <= 30
 R193: - X[0,1,0] - X[0,2,0] - X[0,3,0] - X[0,4,0] - X[0,5,0] - X[0,6,0]
   + X[1,0,0] + X[2,0,0] + X[3,0,0] + X[4,0,0] + X[5,0,0] + X[6,0,0] = 0
 R194: - X[0,1,1] - X[0,2,1] - X[0,3,1] - X[0,4,1] - X[0,5,1] - X[0,6,1]
   + X[1,0,1] + X[2,0,1] + X[3,0,1] + X[4,0,1] + X[5,0,1] + X[6,0,1] = 0
 R195: - X[0,1,2] - X[0,2,2] - X[0,3,2] - X[0,4,2] - X[0,5,2] - X[0,6,2]
   + X[1,0,2] + X[2,0,2] + X[3,0,2] + X[4,0,2] + X[5,0,2] + X[6,0,2] = 0
 R196: - X[0,1,3] - X[0,2,3] - X[0,3,3] - X[0,4,3] - X[0,5,3] - X[0,6,3]
   + X[1,0,3] + X[2,0,3] + X[3,0,3] + X[4,0,3] + X[5,0,3] + X[6,0,3] = 0
 R197: X[0,1,0] - X[1,0,0] - X[1,2,0] - X[1,3,0] - X[1,4,0] - X[1,5,0]
   - X[1,6,0] + X[2,1,0] + X[3,1,0] + X[4,1,0] + X[5,1,0] + X[6,1,0] = 0
 R198: X[0,1,1] - X[1,0,1] - X[1,2,1] - X[1,3,1] - X[1,4,1] - X[1,5,1]
   - X[1,6,1] + X[2,1,1] + X[3,1,1] + X[4,1,1] + X[5,1,1] + X[6,1,1] = 0
 R199: X[0,1,2] - X[1,0,2] - X[1,2,2] - X[1,3,2] - X[1,4,2] - X[1,5,2]
   - X[1,6,2] + X[2,1,2] + X[3,1,2] + X[4,1,2] + X[5,1,2] + X[6,1,2] = 0
 R200: X[0,1,3] - X[1,0,3] - X[1,2,3] - X[1,3,3] - X[1,4,3] - X[1,5,3]
   - X[1,6,3] + X[2,1,3] + X[3,1,3] + X[4,1,3] + X[5,1,3] + X[6,1,3] = 0
 R201: X[0,2,0] + X[1,2,0] - X[2,0,0] - X[2,1,0] - X[2,3,0] - X[2,4,0]
   - X[2,5,0] - X[2,6,0] + X[3,2,0] + X[4,2,0] + X[5,2,0] + X[6,2,0] = 0
 R202: X[0,2,1] + X[1,2,1] - X[2,0,1] - X[2,1,1] - X[2,3,1] - X[2,4,1]
   - X[2,5,1] - X[2,6,1] + X[3,2,1] + X[4,2,1] + X[5,2,1] + X[6,2,1] = 0
 R203: X[0,2,2] + X[1,2,2] - X[2,0,2] - X[2,1,2] - X[2,3,2] - X[2,4,2]
   - X[2,5,2] - X[2,6,2] + X[3,2,2] + X[4,2,2] + X[5,2,2] + X[6,2,2] = 0
 R204: X[0,2,3] + X[1,2,3] - X[2,0,3] - X[2,1,3] - X[2,3,3] - X[2,4,3]
   - X[2,5,3] - X[2,6,3] + X[3,2,3] + X[4,2,3] + X[5,2,3] + X[6,2,3] = 0
 R205: X[0,3,0] + X[1,3,0] + X[2,3,0] - X[3,0,0] - X[3,1,0] - X[3,2,0]
   - X[3,4,0] - X[3,5,0] - X[3,6,0] + X[4,3,0] + X[5,3,0] + X[6,3,0] = 0
 R206: X[0,3,1] + X[1,3,1] + X[2,3,1] - X[3,0,1] - X[3,1,1] - X[3,2,1]
   - X[3,4,1] - X[3,5,1] - X[3,6,1] + X[4,3,1] + X[5,3,1] + X[6,3,1] = 0
 R207: X[0,3,2] + X[1,3,2] + X[2,3,2] - X[3,0,2] - X[3,1,2] - X[3,2,2]
   - X[3,4,2] - X[3,5,2] - X[3,6,2] + X[4,3,2] + X[5,3,2] + X[6,3,2] = 0
 R208: X[0,3,3] + X[1,3,3] + X[2,3,3] - X[3,0,3] - X[3,1,3] - X[3,2,3]
   - X[3,4,3] - X[3,5,3] - X[3,6,3] + X[4,3,3] + X[5,3,3] + X[6,3,3] = 0
 R209: X[0,4,0] + X[1,4,0] + X[2,4,0] + X[3,4,0] - X[4,0,0] - X[4,1,0]
   - X[4,2,0] - X[4,3,0] - X[4,5,0] - X[4,6,0] + X[5,4,0] + X[6,4,0] = 0
 R210: X[0,4,1] + X[1,4,1] + X[2,4,1] + X[3,4,1] - X[4,0,1] - X[4,1,1]
   - X[4,2,1] - X[4,3,1] - X[4,5,1] - X[4,6,1] + X[5,4,1] + X[6,4,1] = 0
 R211: X[0,4,2] + X[1,4,2] + X[2,4,2] + X[3,4,2] - X[4,0,2] - X[4,1,2]
   - X[4,2,2] - X[4,3,2] - X[4,5,2] - X[4,6,2] + X[5,4,2] + X[6,4,2] = 0
 R212: X[0,4,3] + X[1,4,3] + X[2,4,3] + X[3,4,3] - X[4,0,3] - X[4,1,3]
   - X[4,2,3] - X[4,3,3] - X[4,5,3] - X[4,6,3] + X[5,4,3] + X[6,4,3] = 0
 R213: X[0,5,0] + X[1,5,0] + X[2,5,0] + X[3,5,0] + X[4,5,0] - X[5,0,0]
   - X[5,1,0] - X[5,2,0] - X[5,3,0] - X[5,4,0] - X[5,6,0] + X[6,5,0] = 0
 R214: X[0,5,1] + X[1,5,1] + X[2,5,1] + X[3,5,1] + X[4,5,1] - X[5,0,1]
   - X[5,1,1] - X[5,2,1] - X[5,3,1] - X[5,4,1] - X[5,6,1] + X[6,5,1] = 0
 R215: X[0,5,2] + X[1,5,2] + X[2,5,2] + X[3,5,2] + X[4,5,2] - X[5,0,2]
   - X[5,1,2] - X[5,2,2] - X[5,3,2] - X[5,4,2] - X[5,6,2] + X[6,5,2] = 0
 R216: X[0,5,3] + X[1,5,3] + X[2,5,3] + X[3,5,3] + X[4,5,3] - X[5,0,3]
   - X[5,1,3] - X[5,2,3] - X[5,3,3] - X[5,4,3] - X[5,6,3] + X[6,5,3] = 0
 R217: X[0,6,0] + X[1,6,0] + X[2,6,0] + X[3,6,0] + X[4,6,0] + X[5,6,0]
   - X[6,0,0] - X[6,1,0] - X[6,2,0] - X[6,3,0] - X[6,4,0] - X[6,5,0] = 0
 R218: X[0,6,1] + X[1,6,1] + X[2,6,1] + X[3,6,1] + X[4,6,1] + X[5,6,1]
   - X[6,0,1] - X[6,1,1] - X[6,2,1] - X[6,3,1] - X[6,4,1] - X[6,5,1] = 0
 R219: X[0,6,2] + X[1,6,2] + X[2,6,2] + X[3,6,2] + X[4,6,2] + X[5,6,2]
   - X[6,0,2] - X[6,1,2] - X[6,2,2] - X[6,3,2] - X[6,4,2] - X[6,5,2] = 0
 R220: X[0,6,3] + X[1,6,3] + X[2,6,3] + X[3,6,3] + X[4,6,3] + X[5,6,3]
   - X[6,0,3] - X[6,1,3] - X[6,2,3] - X[6,3,3] - X[6,4,3] - X[6,5,3] = 0
 R221: X[0,0,0] + X[1,0,0] + X[2,0,0] + X[3,0,0] + X[4,0,0] + X[5,0,0]
   + X[6,0,0] - Z[0,0] = 0
 R222: X[0,0,1] + X[1,0,1] + X[2,0,1] + X[3,0,1] + X[4,0,1] + X[5,0,1]
   + X[6,0,1] - Z[0,1] = 0
 R223: X[0,0,2] + X[1,0,2] + X[2,0,2] + X[3,0,2] + X[4,0,2] + X[5,0,2]
   + X[6,0,2] - Z[0,2] = 0
 R224: X[0,0,3] + X[1,0,3] + X[2,0,3] + X[3,0,3] + X[4,0,3] + X[5,0,3]
   + X[6,0,3] - Z[0,3] = 0
 R225: X[0,1,0] + X[1,1,0] + X[2,1,0] + X[3,1,0] + X[4,1,0] + X[5,1,0]
   + X[6,1,0] - Z[1,0] = 0
 R226: X[0,1,1] + X[1,1,1] + X[2,1,1] + X[3,1,1] + X[4,1,1] + X[5,1,1]
   + X[6,1,1] - Z[1,1] = 0
 R227: X[0,1,2] + X[1,1,2] + X[2,1,2] + X[3,1,2] + X[4,1,2] + X[5,1,2]
   + X[6,1,2] - Z[1,2] = 0
 R228: X[0,1,3] + X[1,1,3] + X[2,1,3] + X[3,1,3] + X[4,1,3] + X[5,1,3]
   + X[6,1,3] - Z[1,3] = 0
 R229: X[0,2,0] + X[1,2,0] + X[2,2,0] + X[3,2,0] + X[4,2,0] + X[5,2,0]
   + X[6,2,0] - Z[2,0] = 0
 R230: X[0,2,1] + X[1,2,1] + X[2,2,1] + X[3,2,1] + X[4,2,1] + X[5,2,1]
   + X[6,2,1] - Z[2,1] = 0
 R231: X[0,2,2] + X[1,2,2] + X[2,2,2] + X[3,2,2] + X[4,2,2] + X[5,2,2]
   + X[6,2,2] - Z[2,2] = 0
 R232: X[0,2,3] + X[1,2,3] + X[2,2,3] + X[3,2,3] + X[4,2,3] + X[5,2,3]
   + X[6,2,3] - Z[2,3] = 0
 R233: X[0,3,0] + X[1,3,0] + X[2,3,0] + X[3,3,0] + X[4,3,0] + X[5,3,0]
   + X[6,3,0] - Z[3,0] = 0
 R234: X[0,3,1] + X[1,3,1] + X[2,3,1] + X[3,3,1] + X[4,3,1] + X[5,3,1]
   + X[6,3,1] - Z[3,1] = 0
 R235: X[0,3,2] + X[1,3,2] + X[2,3,2] + X[3,3,2] + X[4,3,2] + X[5,3,2]
   + X[6,3,2] - Z[3,2] = 0
 R236: X[0,3,3] + X[1,3,3] + X[2,3,3] + X[3,3,3] + X[4,3,3] + X[5,3,3]
   + X[6,3,3] - Z[3,3] = 0
 R237: X[0,4,0] + X[1,4,0] + X[2,4,0] + X[3,4,0] + X[4,4,0] + X[5,4,0]
   + X[6,4,0] - Z[4,0] = 0
 R238: X[0,4,1] + X[1,4,1] + X[2,4,1] + X[3,4,1] + X[4,4,1] + X[5,4,1]
   + X[6,4,1] - Z[4,1] = 0
 R239: X[0,4,2] + X[1,4,2] + X[2,4,2] + X[3,4,2] + X[4,4,2] + X[5,4,2]
   + X[6,4,2] - Z[4,2] = 0
 R240: X[0,4,3] + X[1,4,3] + X[2,4,3] + X[3,4,3] + X[4,4,3] + X[5,4,3]
   + X[6,4,3] - Z[4,3] = 0
 R241: X[0,5,0] + X[1,5,0] + X[2,5,0] + X[3,5,0] + X[4,5,0] + X[5,5,0]
   + X[6,5,0] - Z[5,0] = 0
 R242: X[0,5,1] + X[1,5,1] + X[2,5,1] + X[3,5,1] + X[4,5,1] + X[5,5,1]
   + X[6,5,1] - Z[5,1] = 0
 R243: X[0,5,2] + X[1,5,2] + X[2,5,2] + X[3,5,2] + X[4,5,2] + X[5,5,2]
   + X[6,5,2] - Z[5,2] = 0
 R244: X[0,5,3] + X[1,5,3] + X[2,5,3] + X[3,5,3] + X[4,5,3] + X[5,5,3]
   + X[6,5,3] - Z[5,3] = 0
 R245: X[0,6,0] + X[1,6,0] + X[2,6,0] + X[3,6,0] + X[4,6,0] + X[5,6,0]
   + X[6,6,0] - Z[6,0] = 0
 R246: X[0,6,1] + X[1,6,1] + X[2,6,1] + X[3,6,1] + X[4,6,1] + X[5,6,1]
   + X[6,6,1] - Z[6,1] = 0
 R247: X[0,6,2] + X[1,6,2] + X[2,6,2] + X[3,6,2] + X[4,6,2] + X[5,6,2]
   + X[6,6,2] - Z[6,2] = 0
 R248: X[0,6,3] + X[1,6,3] + X[2,6,3] + X[3,6,3] + X[4,6,3] + X[5,6,3]
   + X[6,6,3] - Z[6,3] = 0
Bounds
Binaries
 X[0,0,0] X[0,0,1] X[0,0,2] X[0,0,3] X[0,1,0] X[0,1,1] X[0,1,2] X[0,1,3]
 X[0,2,0] X[0,2,1] X[0,2,2] X[0,2,3] X[0,3,0] X[0,3,1] X[0,3,2] X[0,3,3]
 X[0,4,0] X[0,4,1] X[0,4,2] X[0,4,3] X[0,5,0] X[0,5,1] X[0,5,2] X[0,5,3]
 X[0,6,0] X[0,6,1] X[0,6,2] X[0,6,3] X[1,0,0] X[1,0,1] X[1,0,2] X[1,0,3]
 X[1,1,0] X[1,1,1] X[1,1,2] X[1,1,3] X[1,2,0] X[1,2,1] X[1,2,2] X[1,2,3]
 X[1,3,0] X[1,3,1] X[1,3,2] X[1,3,3] X[1,4,0] X[1,4,1] X[1,4,2] X[1,4,3]
 X[1,5,0] X[1,5,1] X[1,5,2] X[1,5,3] X[1,6,0] X[1,6,1] X[1,6,2] X[1,6,3]
 X[2,0,0] X[2,0,1] X[2,0,2] X[2,0,3] X[2,1,0] X[2,1,1] X[2,1,2] X[2,1,3]
 X[2,2,0] X[2,2,1] X[2,2,2] X[2,2,3] X[2,3,0] X[2,3,1] X[2,3,2] X[2,3,3]
 X[2,4,0] X[2,4,1] X[2,4,2] X[2,4,3] X[2,5,0] X[2,5,1] X[2,5,2] X[2,5,3]
 X[2,6,0] X[2,6,1] X[2,6,2] X[2,6,3] X[3,0,0] X[3,0,1] X[3,0,2] X[3,0,3]
 X[3,1,0] X[3,1,1] X[3,1,2] X[3,1,3] X[3,2,0] X[3,2,1] X[3,2,2] X[3,2,3]
 X[3,3,0] X[3,3,1] X[3,3,2] X[3,3,3] X[3,4,0] X[3,4,1] X[3,4,2] X[3,4,3]
 X[3,5,0] X[3,5,1] X[3,5,2] X[3,5,3] X[3,6,0] X[3,6,1] X[3,6,2] X[3,6,3]
 X[4,0,0] X[4,0,1] X[4,0,2] X[4,0,3] X[4,1,0] X[4,1,1] X[4,1,2] X[4,1,3]
 X[4,2,0] X[4,2,1] X[4,2,2] X[4,2,3] X[4,3,0] X[4,3,1] X[4,3,2] X[4,3,3]
 X[4,4,0] X[4,4,1] X[4,4,2] X[4,4,3] X[4,5,0] X[4,5,1] X[4,5,2] X[4,5,3]
 X[4,6,0] X[4,6,1] X[4,6,2] X[4,6,3] X[5,0,0] X[5,0,1] X[5,0,2] X[5,0,3]
 X[5,1,0] X[5,1,1] X[5,1,2] X[5,1,3] X[5,2,0] X[5,2,1] X[5,2,2] X[5,2,3]
 X[5,3,0] X[5,3,1] X[5,3,2] X[5,3,3] X[5,4,0] X[5,4,1] X[5,4,2] X[5,4,3]
 X[5,5,0] X[5,5,1] X[5,5,2] X[5,5,3] X[5,6,0] X[5,6,1] X[5,6,2] X[5,6,3]
 X[6,0,0] X[6,0,1] X[6,0,2] X[6,0,3] X[6,1,0] X[6,1,1] X[6,1,2] X[6,1,3]
 X[6,2,0] X[6,2,1] X[6,2,2] X[6,2,3] X[6,3,0] X[6,3,1] X[6,3,2] X[6,3,3]
 X[6,4,0] X[6,4,1] X[6,4,2] X[6,4,3] X[6,5,0] X[6,5,1] X[6,5,2] X[6,5,3]
 X[6,6,0] X[6,6,1] X[6,6,2] X[6,6,3] Z[0,0] Z[0,1] Z[0,2] Z[0,3] Z[1,0]
 Z[1,1] Z[1,2] Z[1,3] Z[2,0] Z[2,1] Z[2,2] Z[2,3] Z[3,0] Z[3,1] Z[3,2]
 Z[3,3] Z[4,0] Z[4,1] Z[4,2] Z[4,3] Z[5,0] Z[5,1] Z[5,2] Z[5,3] Z[6,0]
 Z[6,1] Z[6,2] Z[6,3]
End
